(set-info :origin "SVCOMP13 benchmarks generated by Arie Gurfinkel")
(set-info :status sat)
(set-logic HORN)
(declare-fun cp-rel-entry () Bool)
(declare-fun cp-rel-__UFO__1 (Real Real) Bool)
(declare-fun cp-rel-UnifiedReturnBlock () Bool)
(declare-fun cp-rel-__UFO__2 (Real Real Real Real Real) Bool)
(assert |cp-rel-entry|)
(assert (forall ((?A Real) (?B Real) (?C Bool) (?D Bool) (?E Bool) (?F Bool) (?G Bool) (?H Bool) (?I Bool) (?J Bool) (?K Bool) (?L Bool) (?M Bool) (?N Bool) (?O Bool) (?P Bool) (?Q Bool) (?R Bool) (?S Bool) )(let (($x476818 (or (and ?G (not ?Q)) (and ?L (not ?R)) (and ?O (not ?S)))))
(let (($x146123 (and |cp-rel-entry| (= ?R (= ?B 4.0)) (= ?N (not (<= 12.0 ?B))) (= ?Q (= ?B 0.0)) (= ?I (not (<= 4.0 ?B))) (= ?F (not (<= 0.0 ?A))) $x476818 (or (not ?O) ?P) (or (not ?O) (and ?J ?P (not ?N))) (or (not ?L) ?M) (or (not ?L) (and ?J ?M ?N)) (or (not ?J) ?K) (or (not ?J) (and ?C ?K (not ?I))) (or (not ?G) ?H) (or (not ?G) (and ?C ?H ?I)) (or (not ?C) ?E) (or (not ?C) (and ?D ?E (not ?F))) (= ?S (= ?B 12.0)))))
(=> $x146123 (|cp-rel-__UFO__1| ?A ?B)))))
)
(assert (forall ((?A Real) (?B Real) (?C Bool) )(let (($x377683 (|cp-rel-__UFO__1| ?A ?B)))
(=> (and $x377683 (= ?C true)) $x377683)))
)
(assert (forall ((?A Real) (?B Real) (?C Bool) (?D Bool) (?E Bool) (?F Bool) (?G Bool) (?H Bool) (?I Bool) (?J Bool) (?K Bool) (?L Bool) (?M Bool) (?N Bool) (?O Bool) (?P Bool) (?Q Bool) (?R Bool) (?S Bool) (?T Real) (?U Real) (?V Real) (?W Bool) (?X Bool) (?Y Bool) (?Z Bool) (?A1 Bool) (?B1 Bool) (?C1 Bool) (?D1 Bool) (?E1 Bool) (?F1 Bool) (?G1 Bool) (?H1 Bool) (?I1 Bool) (?J1 Bool) (?K1 Bool) (?L1 Bool) (?M1 Bool) (?N1 Bool) (?O1 Bool) (?P1 Bool) (?Q1 Bool) (?R1 Bool) (?S1 Bool) (?T1 Bool) (?U1 Bool) (?V1 Bool) (?W1 Bool) (?X1 Bool) (?Y1 Bool) (?Z1 Bool) (?A2 Bool) (?B2 Bool) (?C2 Bool) (?D2 Bool) (?E2 Bool) (?F2 Bool) (?G2 Bool) (?H2 Bool) (?I2 Bool) (?J2 Bool) (?K2 Bool) (?L2 Bool) (?M2 Bool) (?N2 Bool) (?O2 Bool) (?P2 Bool) (?Q2 Bool) (?R2 Bool) (?S2 Bool) (?T2 Bool) (?U2 Bool) (?V2 Bool) (?W2 Bool) (?X2 Bool) (?Y2 Bool) (?Z2 Real) (?A3 Real) (?B3 Bool) (?C3 Bool) (?D3 Bool) (?E3 Bool) )(let (($x130786 (not ?G)))
(let (($x118632 (or $x130786 ?H)))
(let (($x185084 (not ?L)))
(let (($x329283 (or $x185084 ?M)))
(let (($x236682 (not ?A1)))
(let (($x366737 (or $x236682 ?B1)))
(let (($x176812 (not ?F1)))
(let (($x232456 (or $x176812 ?G1)))
(let (($x255825 (not ?K1)))
(let (($x177036 (not ?P1)))
(let (($x103651 (>= ?U 0.0)))
(let (($x266456 (<= ?U 0.0)))
(let (($x374809 (and ?D ?C2 ?F (<= ?T 0.0) (>= ?T 0.0) $x266456 $x103651 (<= ?V ?A) (>= ?V ?A))))
(let (($x126868 (>= ?V 0.0)))
(let (($x206865 (<= ?V 0.0)))
(let (($x164360 (and ?G ?B2 ?Q (<= ?T 2.0) (>= ?T 2.0) $x266456 $x103651 $x206865 $x126868)))
(let (($x401152 (>= ?T 4.0)))
(let (($x177573 (<= ?T 4.0)))
(let (($x372853 (and ?D1 ?A2 ?O1 $x177573 $x401152 (<= ?U (~ 1073741823.0)) (>= ?U (~ 1073741823.0)) (<= ?V (~ 1073741823.0)) (>= ?V (~ 1073741823.0)))))
(let (($x246950 (and ?K1 ?Y1 $x177573 $x401152 (<= ?U 259.0) (>= ?U 259.0) (<= ?V 259.0) (>= ?V 259.0))))
(let (($x163488 (>= ?T 7.0)))
(let (($x423067 (<= ?T 7.0)))
(let (($x465616 (and ?I1 ?X1 ?T1 $x423067 $x163488 (<= ?U (~ 1073741823.0)) (>= ?U (~ 1073741823.0)) (<= ?V (~ 1073741823.0)) (>= ?V (~ 1073741823.0)))))
(let (($x116887 (and ?P1 ?V1 $x423067 $x163488 (<= ?U 259.0) (>= ?U 259.0) (<= ?V 259.0) (>= ?V 259.0))))
(let (($x389256 (not ?U1)))
(let (($x279588 (or $x389256 $x116887 (and ?F1 ?W1 ?R1 $x423067 $x163488 $x266456 $x103651 $x206865 $x126868) $x465616 $x246950 (and ?A1 ?Z1 ?M1 $x177573 $x401152 $x266456 $x103651 $x206865 $x126868) $x372853 $x164360 $x374809)))
(let (($x109720 (not ?B2)))
(let (($x113797 (not ?A2)))
(let (($x418850 (not ?Z1)))
(let (($x459442 (not ?Y1)))
(let (($x407020 (not ?X1)))
(let (($x368495 (not ?W1)))
(let (($x304718 (not ?V1)))
(let (($x163277 (or $x389256 (and ?V1 $x368495 $x407020 $x459442 $x418850 $x113797 $x109720 (not ?C2)) (and ?W1 $x304718 $x407020 $x459442 $x418850 $x113797 $x109720 (not ?C2)) (and ?X1 $x304718 $x368495 $x459442 $x418850 $x113797 $x109720 (not ?C2)) (and ?Y1 $x304718 $x368495 $x407020 $x418850 $x113797 $x109720 (not ?C2)) (and ?Z1 $x304718 $x368495 $x407020 $x459442 $x113797 $x109720 (not ?C2)) (and ?A2 $x304718 $x368495 $x407020 $x459442 $x418850 $x109720 (not ?C2)) (and ?B2 $x304718 $x368495 $x407020 $x459442 $x418850 $x113797 (not ?C2)) (and ?C2 $x304718 $x368495 $x407020 $x459442 $x418850 $x113797 $x109720))))
(let (($x178888 (not ?D2)))
(let (($x282738 (or $x178888 ?E2)))
(let (($x368846 (not ?G2)))
(let (($x136748 (or $x368846 ?H2)))
(let (($x362798 (not ?N2)))
(let (($x338475 (or $x362798 ?O2)))
(let (($x374958 (and |cp-rel-entry| (= ?W2 (= ?T 7.0)) (= ?U2 (= ?T 4.0)) (= ?P2 (not (<= 7.0 ?T))) (= ?Y2 (or ?E3 ?D3)) (= ?E3 (= ?V 259.0)) (= ?D3 (not (= ?T 2.0))) (= ?I2 (not (<= 4.0 ?T))) (= ?F2 (or ?C3 ?B3)) (= ?C3 (= ?V (~ 1.0))) (= ?B3 (= ?T 0.0)) (= ?T1 (= ?A3 1.0)) (= ?R1 (= ?A3 0.0)) (= ?O1 (= ?Z2 1.0)) (= ?M1 (= ?Z2 0.0)) (= ?H1 (not (<= 1.0 ?A3))) (= ?C1 (not (<= 1.0 ?Z2))) (= ?S (= ?B 12.0)) (= ?R (= ?B 4.0)) (= ?N (not (<= 12.0 ?B))) (= ?Q (= ?B 0.0)) (= ?I (not (<= 4.0 ?B))) (= ?F (not (<= 0.0 ?A))) (or (and ?S2 ?X2) (and ?G2 (not ?Y2)) (and ?U1 ?F2)) (or (not ?S2) (and ?T2 (not ?V2)) (and ?V2 (not ?T2))) (or (not ?S2) (and ?N2 ?T2 ?U2) (and ?Q2 ?V2 ?W2)) (or (not ?Q2) ?R2) (or (not ?Q2) (and ?L2 ?R2 (not ?P2))) $x338475 (or $x362798 (and ?L2 ?O2 ?P2)) (or (not ?L2) ?M2) (or (not ?L2) (and ?J2 ?M2)) (or (not ?J2) ?K2) (or (not ?J2) (and ?D2 ?K2 (not ?I2))) $x136748 (or $x368846 (and ?D2 ?H2 ?I2)) $x282738 (or $x178888 (and ?U1 ?E2 (not ?F2))) $x163277 $x279588 (or $x177036 (and ?Q1 (not ?S1)) (and ?S1 (not ?Q1))) (or $x177036 (and ?F1 ?Q1 (not ?R1)) (and ?I1 ?S1 (not ?T1))) (or $x255825 (and ?L1 (not ?N1)) (and ?N1 (not ?L1))) (or $x255825 (and ?A1 ?L1 (not ?M1)) (and ?D1 ?N1 (not ?O1))) (or (not ?I1) ?J1) (or (not ?I1) (and ?Y ?J1 (not ?H1))) $x232456 (or $x176812 (and ?Y ?G1 ?H1)) (or (not ?D1) ?E1) (or (not ?D1) (and ?W ?E1 (not ?C1))) $x366737 (or $x236682 (and ?W ?B1 ?C1)) (or (not ?Y) ?Z) (or (not ?Y) (and ?O ?Z ?S)) (or (not ?W) ?X) (or (not ?W) (and ?L ?X ?R)) (or (not ?O) ?P) (or (not ?O) (and ?J ?P (not ?N))) $x329283 (or $x185084 (and ?J ?M ?N)) (or (not ?J) ?K) (or (not ?J) (and ?C ?K (not ?I))) $x118632 (or $x130786 (and ?C ?H ?I)) (or (not ?C) ?E) (or (not ?C) (and ?D ?E (not ?F))) (= ?X2 (= ?V ?U)))))
(=> $x374958 (|cp-rel-__UFO__2| ?A ?B ?T ?U ?V))))))))))))))))))))))))))))))))))))))))))))
)
(assert (forall ((?A Real) (?B Real) (?C Real) (?D Real) (?E Real) (?F Bool) )(let (($x143381 (|cp-rel-__UFO__2| ?A ?B ?C ?D ?E)))
(=> (and $x143381 (= ?F true)) $x143381)))
)
(assert (forall ((?A Real) (?B Real) (?C Bool) (?D Bool) (?E Bool) (?F Bool) (?G Bool) (?H Bool) (?I Bool) (?J Bool) (?K Bool) (?L Bool) (?M Bool) (?N Bool) (?O Bool) (?P Bool) (?Q Bool) (?R Bool) (?S Bool) (?T Real) (?U Real) (?V Real) (?W Bool) (?X Bool) (?Y Bool) (?Z Bool) (?A1 Bool) (?B1 Bool) (?C1 Bool) (?D1 Bool) (?E1 Bool) (?F1 Bool) (?G1 Bool) (?H1 Bool) (?I1 Bool) (?J1 Bool) (?K1 Bool) (?L1 Bool) (?M1 Bool) (?N1 Bool) (?O1 Bool) (?P1 Bool) (?Q1 Bool) (?R1 Bool) (?S1 Bool) (?T1 Bool) (?U1 Bool) (?V1 Bool) (?W1 Bool) (?X1 Bool) (?Y1 Bool) (?Z1 Bool) (?A2 Bool) (?B2 Bool) (?C2 Bool) (?D2 Bool) (?E2 Bool) (?F2 Bool) (?G2 Bool) (?H2 Bool) (?I2 Bool) (?J2 Bool) (?K2 Bool) (?L2 Bool) (?M2 Bool) (?N2 Bool) (?O2 Bool) (?P2 Bool) (?Q2 Bool) (?R2 Bool) (?S2 Bool) (?T2 Bool) (?U2 Bool) (?V2 Bool) (?W2 Bool) (?X2 Bool) (?Y2 Bool) (?Z2 Real) (?A3 Real) (?B3 Bool) (?C3 Bool) (?D3 Bool) (?E3 Bool) (?F3 Bool) (?G3 Bool) (?H3 Bool) )(let (($x130786 (not ?J)))
(let (($x118632 (or $x130786 ?K)))
(let (($x185084 (not ?O)))
(let (($x329283 (or $x185084 ?P)))
(let (($x236682 (not ?D1)))
(let (($x366737 (or $x236682 ?E1)))
(let (($x176812 (not ?I1)))
(let (($x232456 (or $x176812 ?J1)))
(let (($x423177 (not ?K1)))
(let (($x350932 (not ?P1)))
(let (($x233216 (>= ?U 0.0)))
(let (($x392404 (<= ?U 0.0)))
(let (($x126176 (and ?D ?C2 ?F (<= ?T 0.0) (>= ?T 0.0) $x392404 $x233216 (<= ?V ?A) (>= ?V ?A))))
(let (($x366674 (>= ?V 0.0)))
(let (($x445832 (<= ?V 0.0)))
(let (($x445013 (and ?G ?B2 ?Q (<= ?T 2.0) (>= ?T 2.0) $x392404 $x233216 $x445832 $x366674)))
(let (($x322332 (>= ?T 4.0)))
(let (($x304426 (<= ?T 4.0)))
(let (($x482106 (and ?D1 ?A2 ?O1 $x304426 $x322332 (<= ?U (~ 1073741823.0)) (>= ?U (~ 1073741823.0)) (<= ?V (~ 1073741823.0)) (>= ?V (~ 1073741823.0)))))
(let (($x144782 (and ?K1 ?Y1 $x304426 $x322332 (<= ?U 259.0) (>= ?U 259.0) (<= ?V 259.0) (>= ?V 259.0))))
(let (($x490375 (>= ?T 7.0)))
(let (($x215803 (<= ?T 7.0)))
(let (($x326167 (and ?I1 ?X1 ?T1 $x215803 $x490375 (<= ?U (~ 1073741823.0)) (>= ?U (~ 1073741823.0)) (<= ?V (~ 1073741823.0)) (>= ?V (~ 1073741823.0)))))
(let (($x293880 (and ?P1 ?V1 $x215803 $x490375 (<= ?U 259.0) (>= ?U 259.0) (<= ?V 259.0) (>= ?V 259.0))))
(let (($x282386 (not ?U1)))
(let (($x126465 (or $x282386 $x293880 (and ?F1 ?W1 ?R1 $x215803 $x490375 $x392404 $x233216 $x445832 $x366674) $x326167 $x144782 (and ?A1 ?Z1 ?M1 $x304426 $x322332 $x392404 $x233216 $x445832 $x366674) $x482106 $x445013 $x126176)))
(let (($x459442 (not ?B2)))
(let (($x407020 (not ?A2)))
(let (($x368495 (not ?Z1)))
(let (($x304718 (not ?Y1)))
(let (($x389256 (not ?X1)))
(let (($x159420 (not ?W1)))
(let (($x334965 (not ?V1)))
(let (($x267480 (or $x282386 (and ?V1 $x159420 $x389256 $x304718 $x368495 $x407020 $x459442 (not ?C2)) (and ?W1 $x334965 $x389256 $x304718 $x368495 $x407020 $x459442 (not ?C2)) (and ?X1 $x334965 $x159420 $x304718 $x368495 $x407020 $x459442 (not ?C2)) (and ?Y1 $x334965 $x159420 $x389256 $x368495 $x407020 $x459442 (not ?C2)) (and ?Z1 $x334965 $x159420 $x389256 $x304718 $x407020 $x459442 (not ?C2)) (and ?A2 $x334965 $x159420 $x389256 $x304718 $x368495 $x459442 (not ?C2)) (and ?B2 $x334965 $x159420 $x389256 $x304718 $x368495 $x407020 (not ?C2)) (and ?C2 $x334965 $x159420 $x389256 $x304718 $x368495 $x407020 $x459442))))
(let (($x178888 (not ?G2)))
(let (($x282738 (or $x178888 ?H2)))
(let (($x368846 (not ?J2)))
(let (($x136748 (or $x368846 ?K2)))
(let (($x362798 (not ?Q2)))
(let (($x338475 (or $x362798 ?R2)))
(let (($x417933 (not ?F3)))
(let (($x128440 (and |cp-rel-entry| (= ?W2 (= ?T 7.0)) (= ?U2 (= ?T 4.0)) (= ?P2 (not (<= 7.0 ?T))) (= ?Y2 (or ?E3 ?D3)) (= ?E3 (= ?V 259.0)) (= ?D3 (not (= ?T 2.0))) (= ?I2 (not (<= 4.0 ?T))) (= ?F2 (or ?C3 ?B3)) (= ?C3 (= ?V (~ 1.0))) (= ?B3 (= ?T 0.0)) (= ?T1 (= ?A3 1.0)) (= ?R1 (= ?A3 0.0)) (= ?O1 (= ?Z2 1.0)) (= ?M1 (= ?Z2 0.0)) (= ?H1 (not (<= 1.0 ?A3))) (= ?C1 (not (<= 1.0 ?Z2))) (= ?S (= ?B 12.0)) (= ?R (= ?B 4.0)) (= ?N (not (<= 12.0 ?B))) (= ?Q (= ?B 0.0)) (= ?I (not (<= 4.0 ?B))) (= ?F (not (<= 0.0 ?A))) (or ?F3 (and ?S2 (not ?X2)) (and ?G2 ?Y2)) (or $x417933 (and ?G3 (not ?H3)) (and ?H3 (not ?G3))) (or $x417933 (and ?N2 ?G3 (not ?U2)) (and ?Q2 ?H3 (not ?W2))) (or (not ?S2) (and ?T2 (not ?V2)) (and ?V2 (not ?T2))) (or (not ?S2) (and ?N2 ?T2 ?U2) (and ?Q2 ?V2 ?W2)) $x338475 (or $x362798 (and ?L2 ?R2 (not ?P2))) (or (not ?N2) ?O2) (or (not ?N2) (and ?L2 ?O2 ?P2)) (or (not ?L2) ?M2) (or (not ?L2) (and ?J2 ?M2)) $x136748 (or $x368846 (and ?D2 ?K2 (not ?I2))) $x282738 (or $x178888 (and ?D2 ?H2 ?I2)) (or (not ?D2) ?E2) (or (not ?D2) (and ?U1 ?E2 (not ?F2))) $x267480 $x126465 (or $x350932 (and ?Q1 (not ?S1)) (and ?S1 (not ?Q1))) (or $x350932 (and ?F1 ?Q1 (not ?R1)) (and ?I1 ?S1 (not ?T1))) (or $x423177 (and ?L1 (not ?N1)) (and ?N1 (not ?L1))) (or $x423177 (and ?A1 ?L1 (not ?M1)) (and ?D1 ?N1 (not ?O1))) $x232456 (or $x176812 (and ?Y ?J1 (not ?H1))) (or (not ?F1) ?G1) (or (not ?F1) (and ?Y ?G1 ?H1)) $x366737 (or $x236682 (and ?W ?E1 (not ?C1))) (or (not ?A1) ?B1) (or (not ?A1) (and ?W ?B1 ?C1)) (or (not ?Y) ?Z) (or (not ?Y) (and ?O ?Z ?S)) (or (not ?W) ?X) (or (not ?W) (and ?L ?X ?R)) $x329283 (or $x185084 (and ?J ?P (not ?N))) (or (not ?L) ?M) (or (not ?L) (and ?J ?M ?N)) $x118632 (or $x130786 (and ?C ?K (not ?I))) (or (not ?G) ?H) (or (not ?G) (and ?C ?H ?I)) (or (not ?C) ?E) (or (not ?C) (and ?D ?E (not ?F))) (= ?X2 (= ?V ?U)))))
(=> $x128440 |cp-rel-UnifiedReturnBlock|))))))))))))))))))))))))))))))))))))))))))))
)
(assert (not cp-rel-UnifiedReturnBlock))
(check-sat)
